p wcnf 187 220 221 
1 -55 -54 0 
1 -185 37 0 
1 -50 -159 0 
1 55 174 0 
1 118 5 0 
1 -179 100 0 
1 -163 -80 0 
1 -163 -175 0 
1 106 38 0 
1 -123 87 0 
1 155 137 0 
1 75 11 0 
1 55 -54 0 
1 137 -176 0 
1 -133 -130 0 
1 -148 -60 0 
1 -50 96 0 
1 152 -92 0 
1 187 141 0 
1 183 100 0 
1 83 -153 0 
1 133 -74 0 
1 -107 -27 0 
1 186 -155 0 
1 -99 1 0 
1 -99 168 0 
1 131 18 0 
1 125 -74 0 
1 -145 160 0 
1 15 -16 0 
1 93 -3 0 
1 -145 184 0 
1 104 47 0 
1 -72 135 0 
1 47 59 0 
1 145 -32 0 
1 2 111 0 
1 148 -120 0 
1 86 -68 0 
1 -185 6 0 
1 123 -105 0 
1 -158 40 0 
1 185 -20 0 
1 -141 152 0 
1 64 178 0 
1 -141 117 0 
1 97 40 0 
1 -17 39 0 
1 -178 92 0 
1 158 145 0 
1 -118 40 0 
1 -168 -61 0 
1 -61 -46 0 
1 -166 -154 0 
1 -146 -40 0 
1 38 152 0 
1 -16 154 0 
1 166 58 0 
1 10 -172 0 
1 -134 -90 0 
1 -47 105 0 
1 119 -44 0 
1 -97 -152 0 
1 -53 83 0 
1 -132 -55 0 
1 88 150 0 
1 182 35 0 
1 113 104 0 
1 -150 53 0 
1 -144 -166 0 
1 62 -56 0 
1 -71 -151 0 
1 -13 8 0 
1 26 98 0 
1 -13 -179 0 
1 58 -7 0 
1 -141 -148 0 
1 168 184 0 
1 -114 -176 0 
1 -117 35 0 
1 47 18 0 
1 -106 121 0 
1 -92 -81 0 
1 -24 -124 0 
1 -19 -130 0 
1 143 -183 0 
1 -156 125 0 
1 183 101 0 
1 19 67 0 
1 -22 -109 0 
1 -29 86 0 
1 55 22 0 
1 -176 -85 0 
1 -158 55 0 
1 -3 6 0 
1 106 187 0 
1 -115 136 0 
1 -104 -70 0 
1 -10 -63 0 
1 -78 174 0 
1 63 144 0 
1 69 19 0 
1 -2 16 0 
1 -141 177 0 
1 -185 -116 0 
1 -175 -47 0 
1 115 -90 0 
1 135 -132 0 
1 -75 -22 0 
1 -86 35 0 
1 -125 -47 0 
1 61 -3 0 
1 111 152 0 
1 -24 -51 0 
1 79 70 0 
1 -94 93 0 
1 73 4 0 
1 -14 -33 0 
1 -36 -104 0 
1 84 50 0 
1 -16 114 0 
1 -180 -38 0 
1 -45 -86 0 
1 1 131 0 
1 49 151 0 
1 -67 160 0 
1 -33 166 0 
1 105 118 0 
1 -176 -168 0 
1 -35 19 0 
1 -23 128 0 
1 -141 50 0 
1 175 75 0 
1 -143 150 0 
1 -160 16 0 
1 157 -113 0 
1 -38 -66 0 
1 75 -29 0 
1 109 -85 0 
1 -82 98 0 
1 96 -85 0 
1 -174 96 0 
1 182 -180 0 
1 13 -152 0 
1 57 -89 0 
1 -98 -48 0 
1 -136 -172 0 
1 90 104 0 
1 57 153 0 
1 19 55 0 
1 -86 -158 0 
1 -3 -70 0 
1 -42 165 0 
1 -16 38 0 
1 -59 113 0 
1 69 9 0 
1 -49 109 0 
1 -171 -25 0 
1 24 -76 0 
1 -114 163 0 
1 -171 -5 0 
1 99 -144 0 
1 -4 41 0 
1 -65 -95 0 
1 85 101 0 
1 147 -97 0 
1 -180 -162 0 
1 -90 115 0 
1 136 -57 0 
1 -84 13 0 
1 -54 123 0 
1 -166 70 0 
1 -28 92 0 
1 151 -56 0 
1 -81 -173 0 
1 185 84 0 
1 49 -89 0 
1 120 174 0 
1 -41 165 0 
1 113 -122 0 
1 147 -105 0 
1 -143 55 0 
1 138 -174 0 
1 140 -9 0 
1 139 -173 0 
1 -130 68 0 
1 71 -80 0 
1 -167 -118 0 
1 -120 -66 0 
1 -173 -123 0 
1 -21 -19 0 
1 -48 -146 0 
1 32 86 0 
1 1 -46 0 
1 -131 -185 0 
1 116 -155 0 
1 -46 -51 0 
1 -46 112 0 
1 -140 -145 0 
1 164 -32 0 
1 -67 -39 0 
1 -169 90 0 
1 -184 181 0 
1 -131 -138 0 
1 98 138 0 
1 -135 -140 0 
1 15 86 0 
1 -143 -14 0 
1 -138 -128 0 
1 -129 -72 0 
1 -45 -123 0 
1 63 112 0 
1 -137 -171 0 
1 125 91 0 
1 -138 7 0 
1 180 60 0 
1 53 -72 0 
1 54 -88 0 
1 46 -96 0 
1 104 176 0 
